Route 1: 0 50 81 29 96 57 14 61 26 16 52 24 15 0
Route 2: 0 79 95 70 72 87 6 0
Route 3: 0 85 59 77 19 54 11 90 0
Route 4: 0 3 36 4 48 35 64 39 99 66 32 98 2 0
Route 5: 0 34 91 47 75 69 28 83 21 86 0
Route 6: 0 13 38 65 12 89 7 33 8 9 18 53 84 0
Route 7: 0 58 27 25 41 63 5 10 1 76 46 30 97 0
Route 8: 0 80 51 82 92 74 68 55 73 0
Route 9: 0 23 88 44 60 49 40 43 62 20 93 37 67 0
Route 10: 0 31 45 56 71 100 94 17 78 42 22 0
